c Generated map
c Size: 12 * 12, weights in range: 1 to 10, walls: True, with ratio 0.05
c dim 5 of 5
c
p sp 144 238
c graph contains 144 nodes and 238 arcs
c
a 1 13 4
a 13 1 4
a 1 2 5
a 2 1 5
a 2 3 5
a 3 2 5
a 3 15 8
a 15 3 8
a 5 6 1
a 6 5 1
a 6 18 10
a 18 6 10
a 6 7 1
a 7 6 1
a 7 19 4
a 19 7 4
a 7 8 2
a 8 7 2
a 8 20 7
a 20 8 7
a 8 9 7
a 9 8 7
a 9 21 3
a 21 9 3
a 9 10 2
a 10 9 2
a 10 22 10
a 22 10 10
a 10 11 6
a 11 10 6
a 11 23 6
a 23 11 6
a 11 12 10
a 12 11 10
a 12 24 5
a 24 12 5
a 13 25 7
a 25 13 7
a 15 27 7
a 27 15 7
a 15 16 6
a 16 15 6
a 16 28 4
a 28 16 4
a 18 30 1
a 30 18 1
a 18 19 8
a 19 18 8
a 19 31 9
a 31 19 9
a 19 20 10
a 20 19 10
a 20 32 2
a 32 20 2
a 20 21 3
a 21 20 3
a 21 33 10
a 33 21 10
a 21 22 8
a 22 21 8
a 22 34 8
a 34 22 8
a 22 23 6
a 23 22 6
a 23 35 4
a 35 23 4
a 23 24 7
a 24 23 7
a 24 36 5
a 36 24 5
a 25 37 5
a 37 25 5
a 25 26 9
a 26 25 9
a 26 38 6
a 38 26 6
a 26 27 8
a 27 26 8
a 27 39 10
a 39 27 10
a 27 28 5
a 28 27 5
a 28 40 10
a 40 28 10
a 28 29 9
a 29 28 9
a 29 41 4
a 41 29 4
a 29 30 4
a 30 29 4
a 30 42 3
a 42 30 3
a 30 31 4
a 31 30 4
a 31 43 6
a 43 31 6
a 31 32 9
a 32 31 9
a 32 44 8
a 44 32 8
a 32 33 3
a 33 32 3
a 33 45 3
a 45 33 3
a 33 34 9
a 34 33 9
a 34 46 1
a 46 34 1
a 34 35 1
a 35 34 1
a 35 36 1
a 36 35 1
a 36 48 10
a 48 36 10
a 37 49 5
a 49 37 5
a 37 38 5
a 38 37 5
a 38 50 6
a 50 38 6
a 38 39 2
a 39 38 2
a 39 51 1
a 51 39 1
a 39 40 4
a 40 39 4
a 40 52 10
a 52 40 10
a 40 41 9
a 41 40 9
a 41 53 2
a 53 41 2
a 41 42 8
a 42 41 8
a 42 54 1
a 54 42 1
a 42 43 10
a 43 42 10
a 43 55 5
a 55 43 5
a 43 44 7
a 44 43 7
a 44 56 1
a 56 44 1
a 44 45 6
a 45 44 6
a 45 57 1
a 57 45 1
a 45 46 2
a 46 45 2
a 46 58 2
a 58 46 2
a 48 60 3
a 60 48 3
a 49 61 8
a 61 49 8
a 49 50 1
a 50 49 1
a 50 62 8
a 62 50 8
a 50 51 7
a 51 50 7
a 51 63 10
a 63 51 10
a 51 52 9
a 52 51 9
a 52 64 2
a 64 52 2
a 52 53 3
a 53 52 3
a 53 65 1
a 65 53 1
a 53 54 8
a 54 53 8
a 54 66 10
a 66 54 10
a 54 55 1
a 55 54 1
a 55 67 8
a 67 55 8
a 55 56 7
a 56 55 7
a 56 68 8
a 68 56 8
a 56 57 8
a 57 56 8
a 57 69 4
a 69 57 4
a 57 58 6
a 58 57 6
a 58 70 3
a 70 58 3
a 58 59 10
a 59 58 10
a 59 71 5
a 71 59 5
a 59 60 2
a 60 59 2
a 60 72 5
a 72 60 5
a 61 73 5
a 73 61 5
a 61 62 3
a 62 61 3
a 62 74 8
a 74 62 8
a 62 63 6
a 63 62 6
a 63 75 6
a 75 63 6
a 63 64 3
a 64 63 3
a 64 76 1
a 76 64 1
a 64 65 4
a 65 64 4
a 65 77 1
a 77 65 1
a 65 66 4
a 66 65 4
a 66 67 6
a 67 66 6
a 67 79 4
a 79 67 4
a 67 68 3
a 68 67 3
a 68 80 8
a 80 68 8
a 68 69 4
a 69 68 4
a 69 81 8
a 81 69 8
a 69 70 1
a 70 69 1
a 70 82 4
a 82 70 4
a 70 71 2
a 71 70 2
a 71 83 1
a 83 71 1
a 71 72 2
a 72 71 2
a 72 84 4
a 84 72 4
a 73 85 4
a 85 73 4
a 73 74 3
a 74 73 3
a 74 86 6
a 86 74 6
a 74 75 1
a 75 74 1
a 75 87 10
a 87 75 10
a 75 76 3
a 76 75 3
a 76 88 1
a 88 76 1
a 76 77 2
a 77 76 2
a 79 91 3
a 91 79 3
a 79 80 3
a 80 79 3
a 80 92 5
a 92 80 5
a 80 81 1
a 81 80 1
a 81 93 9
a 93 81 9
a 81 82 6
a 82 81 6
a 82 94 2
a 94 82 2
a 82 83 5
a 83 82 5
a 83 95 7
a 95 83 7
a 83 84 1
a 84 83 1
a 84 96 7
a 96 84 7
a 85 97 1
a 97 85 1
a 85 86 5
a 86 85 5
a 86 98 3
a 98 86 3
a 86 87 1
a 87 86 1
a 87 99 6
a 99 87 6
a 87 88 5
a 88 87 5
a 88 100 10
a 100 88 10
a 90 102 5
a 102 90 5
a 90 91 7
a 91 90 7
a 91 103 2
a 103 91 2
a 91 92 1
a 92 91 1
a 92 104 7
a 104 92 7
a 92 93 10
a 93 92 10
a 93 105 2
a 105 93 2
a 93 94 1
a 94 93 1
a 94 106 4
a 106 94 4
a 94 95 5
a 95 94 5
a 95 107 6
a 107 95 6
a 95 96 3
a 96 95 3
a 96 108 1
a 108 96 1
a 97 109 10
a 109 97 10
a 97 98 7
a 98 97 7
a 98 110 1
a 110 98 1
a 98 99 5
a 99 98 5
a 99 111 3
a 111 99 3
a 99 100 8
a 100 99 8
a 100 112 3
a 112 100 3
a 100 101 2
a 101 100 2
a 101 113 8
a 113 101 8
a 101 102 4
a 102 101 4
a 102 114 8
a 114 102 8
a 102 103 8
a 103 102 8
a 103 115 3
a 115 103 3
a 103 104 2
a 104 103 2
a 104 116 5
a 116 104 5
a 104 105 1
a 105 104 1
a 105 117 3
a 117 105 3
a 105 106 4
a 106 105 4
a 106 118 2
a 118 106 2
a 106 107 8
a 107 106 8
a 107 119 10
a 119 107 10
a 107 108 7
a 108 107 7
a 108 120 6
a 120 108 6
a 109 121 4
a 121 109 4
a 109 110 5
a 110 109 5
a 110 122 3
a 122 110 3
a 110 111 1
a 111 110 1
a 111 123 4
a 123 111 4
a 111 112 8
a 112 111 8
a 112 124 8
a 124 112 8
a 112 113 2
a 113 112 2
a 113 125 3
a 125 113 3
a 113 114 7
a 114 113 7
a 114 126 1
a 126 114 1
a 114 115 3
a 115 114 3
a 115 127 10
a 127 115 10
a 115 116 2
a 116 115 2
a 116 128 4
a 128 116 4
a 116 117 3
a 117 116 3
a 117 129 2
a 129 117 2
a 117 118 1
a 118 117 1
a 118 130 5
a 130 118 5
a 118 119 1
a 119 118 1
a 119 131 4
a 131 119 4
a 119 120 4
a 120 119 4
a 120 132 9
a 132 120 9
a 121 133 10
a 133 121 10
a 121 122 8
a 122 121 8
a 122 134 8
a 134 122 8
a 122 123 3
a 123 122 3
a 123 124 2
a 124 123 2
a 124 136 3
a 136 124 3
a 124 125 3
a 125 124 3
a 125 137 2
a 137 125 2
a 125 126 9
a 126 125 9
a 126 138 3
a 138 126 3
a 126 127 10
a 127 126 10
a 127 139 2
a 139 127 2
a 127 128 6
a 128 127 6
a 128 140 2
a 140 128 2
a 128 129 9
a 129 128 9
a 129 141 2
a 141 129 2
a 129 130 4
a 130 129 4
a 130 142 5
a 142 130 5
a 130 131 7
a 131 130 7
a 131 143 5
a 143 131 5
a 131 132 5
a 132 131 5
a 132 144 4
a 144 132 4
a 133 134 2
a 134 133 2
a 136 137 4
a 137 136 4
a 137 138 3
a 138 137 3
a 138 139 2
a 139 138 2
a 139 140 7
a 140 139 7
a 140 141 5
a 141 140 5
a 141 142 10
a 142 141 10
a 142 143 9
a 143 142 9
a 143 144 3
a 144 143 3
